ModelsBigM/BigMLazyCon_18.lp
\ENCODING=ISO-8859-1
\Problem name: ilog.cplex

Minimize
 obj: _98step1#16 + _98step2#17 + _98step3#18 + _162step1#39 + _162step2#40
      + _162step3#41 + _163step1#61 + _163step2#62 + _163step3#63
      + _148step1#73 + _148step2#74 + _148step3#75 + _151step1#79
      + _151step2#80 + _151step3#81
Subject To
 LB_98T16#0:                     _98T16#0 >= 1941
 LB_98T15#1:                     _98T15#1 >= 2918
 prec_98T15_98T16#2:             - _98T16#0 + _98T15#1 >= 977
 LB_98T14#3:                     _98T14#2 >= 3023
 prec_98T14_98T15#4:             - _98T15#1 + _98T14#2 >= 105
 LB_98T13#5:                     _98T13#3 >= 3240
 prec_98T13_98T14#6:             - _98T14#2 + _98T13#3 >= 217
 LB_98T12#7:                     _98T12#4 >= 3348
 prec_98T12_98T13#8:             - _98T13#3 + _98T12#4 >= 108
 LB_98T11#9:                     _98T11#5 >= 3510
 prec_98T11_98T12#10:            - _98T12#4 + _98T11#5 >= 162
 LB_98T10#11:                    _98T10#6 >= 3935
 prec_98T10_98T11#12:            - _98T11#5 + _98T10#6 >= 425
 LB_98T9#13:                     _98T9#7 >= 4235
 prec_98T9_98T10#14:             - _98T10#6 + _98T9#7 >= 300
 LB_98T8#15:                     _98T8#8 >= 5061
 prec_98T8_98T9#16:              - _98T9#7 + _98T8#8 >= 826
 LB_98T7#17:                     _98T7#9 >= 5764
 prec_98T7_98T8#18:              - _98T8#8 + _98T7#9 >= 703
 LB_98T6#19:                     _98T6#10 >= 6005
 prec_98T6_98T7#20:              - _98T7#9 + _98T6#10 >= 241
 LB_98T5#21:                     _98T5#11 >= 19221
 prec_98T5_98T6#22:              - _98T6#10 + _98T5#11 >= 13216
 LB_98T4#23:                     _98T4#12 >= 25972
 prec_98T4_98T5#24:              - _98T5#11 + _98T4#12 >= 6751
 LB_98T3#25:                     _98T3#13 >= 26251
 prec_98T3_98T4#26:              - _98T4#12 + _98T3#13 >= 279
 LB_98T2#27:                     _98T2#14 >= 27381
 prec_98T2_98T3#28:              - _98T3#13 + _98T2#14 >= 1130
 LB_98T1#29:                     _98T1#15 >= 28145
 prec_98T1_98T2#30:              - _98T2#14 + _98T1#15 >= 764
 _98step1#31:                    _98T1#15 - 93090 _98step1#16 <= 28145
 _98step2#32:                    _98T1#15 - 92910 _98step2#17 <= 28325
 _98step3#33:                    _98T1#15 - 92730 _98step3#18 <= 28505
 LB_162T25#34:                   _162T25#19 >= 1788
 LB_162T24#35:                   _162T24#20 >= 2000
 prec_162T24_162T25#36:          - _162T25#19 + _162T24#20 >= 212
 LB_162T23#37:                   _162T23#21 >= 2178
 prec_162T23_162T24#38:          - _162T24#20 + _162T23#21 >= 178
 LB_162T22#39:                   _162T22#22 >= 2358
 prec_162T22_162T23#40:          - _162T23#21 + _162T22#22 >= 180
 LB_162T21#41:                   _162T21#23 >= 2538
 prec_162T21_162T22#42:          - _162T22#22 + _162T21#23 >= 180
 LB_162T20#43:                   _162T20#24 >= 2687
 prec_162T20_162T21#44:          - _162T21#23 + _162T20#24 >= 149
 LB_162T19#45:                   _162T19#25 >= 2732
 prec_162T19_162T20#46:          - _162T20#24 + _162T19#25 >= 45
 LB_162T18#47:                   _162T18#26 >= 2988
 prec_162T18_162T19#48:          - _162T19#25 + _162T18#26 >= 256
 LB_162T17#49:                   _162T17#27 >= 3318
 prec_162T17_162T18#50:          - _162T18#26 + _162T17#27 >= 330
 LB_162T16#51:                   _162T16#28 >= 3558
 prec_162T16_162T17#52:          - _162T17#27 + _162T16#28 >= 240
 LB_162T15#53:                   _162T15#29 >= 3798
 prec_162T15_162T16#54:          - _162T16#28 + _162T15#29 >= 240
 LB_162T14#55:                   _162T14#30 >= 3978
 prec_162T14_162T15#56:          - _162T15#29 + _162T14#30 >= 180
 LB_162T13#57:                   _162T13#31 >= 4186
 prec_162T13_162T14#58:          - _162T14#30 + _162T13#31 >= 208
 LB_162T12#59:                   _162T12#32 >= 4267
 prec_162T12_162T13#60:          - _162T13#31 + _162T12#32 >= 81
 LB_162T11#61:                   _162T11#33 >= 4468
 prec_162T11_162T12#62:          - _162T12#32 + _162T11#33 >= 201
 LB_162T10#63:                   _162T10#34 >= 5348
 prec_162T10_162T11#64:          - _162T11#33 + _162T10#34 >= 880
 LB_162T9#65:                    _162T9#35 >= 5768
 prec_162T9_162T10#66:           - _162T10#34 + _162T9#35 >= 420
 LB_162T8#67:                    _162T8#36 >= 6038
 prec_162T8_162T9#68:            - _162T9#35 + _162T8#36 >= 270
 LB_162T7#69:                    _162T7#37 >= 6368
 prec_162T7_162T8#70:            - _162T8#36 + _162T7#37 >= 330
 LB_162T6#71:                    _162T6#38 >= 6548
 prec_162T6_162T7#72:            - _162T7#37 + _162T6#38 >= 180
 _162step1#73:                   _162T6#38 - 93090 _162step1#39 <= 6521
 _162step2#74:                   _162T6#38 - 92910 _162step2#40 <= 6701
 _162step3#75:                   _162T6#38 - 92730 _162step3#41 <= 6881
 LB_163T7#76:                    _163T7#42 >= 16
 LB_163T8#77:                    _163T8#43 >= 196
 prec_163T8_163T7#78:            - _163T7#42 + _163T8#43 >= 180
 LB_163T9#79:                    _163T9#44 >= 496
 prec_163T9_163T8#80:            - _163T8#43 + _163T9#44 >= 300
 LB_163T10#81:                   _163T10#45 >= 736
 prec_163T10_163T9#82:           - _163T9#44 + _163T10#45 >= 240
 LB_163T11#83:                   _163T11#46 >= 976
 prec_163T11_163T10#84:          - _163T10#45 + _163T11#46 >= 240
 LB_163T12#85:                   _163T12#47 >= 1336
 prec_163T12_163T11#86:          - _163T11#46 + _163T12#47 >= 360
 LB_163T13#87:                   _163T13#48 >= 1443
 prec_163T13_163T12#88:          - _163T12#47 + _163T13#48 >= 107
 LB_163T14#89:                   _163T14#49 >= 1515
 prec_163T14_163T13#90:          - _163T13#48 + _163T14#49 >= 72
 LB_163T15#91:                   _163T15#50 >= 1756
 prec_163T15_163T14#92:          - _163T14#49 + _163T15#50 >= 241
 LB_163T16#93:                   _163T16#51 >= 1936
 prec_163T16_163T15#94:          - _163T15#50 + _163T16#51 >= 180
 LB_163T17#95:                   _163T17#52 >= 2056
 prec_163T17_163T16#96:          - _163T16#51 + _163T17#52 >= 120
 LB_163T18#97:                   _163T18#53 >= 2236
 prec_163T18_163T17#98:          - _163T17#52 + _163T18#53 >= 180
 LB_163T19#99:                   _163T19#54 >= 2716
 prec_163T19_163T18#100:         - _163T18#53 + _163T19#54 >= 480
 LB_163T20#101:                  _163T20#55 >= 2806
 prec_163T20_163T19#102:         - _163T19#54 + _163T20#55 >= 90
 LB_163T21#103:                  _163T21#56 >= 2836
 prec_163T21_163T20#104:         - _163T20#55 + _163T21#56 >= 30
 LB_163T22#105:                  _163T22#57 >= 3016
 prec_163T22_163T21#106:         - _163T21#56 + _163T22#57 >= 180
 LB_163T23#107:                  _163T23#58 >= 3136
 prec_163T23_163T22#108:         - _163T22#57 + _163T23#58 >= 120
 LB_163T24#109:                  _163T24#59 >= 3256
 prec_163T24_163T23#110:         - _163T23#58 + _163T24#59 >= 120
 LB_163T25#111:                  _163T25#60 >= 3366
 prec_163T25_163T24#112:         - _163T24#59 + _163T25#60 >= 110
 _163step1#113:                  _163T25#60 - 93090 _163step1#61 <= 3350
 _163step2#114:                  _163T25#60 - 92910 _163step2#62 <= 3530
 _163step3#115:                  _163T25#60 - 92730 _163step3#63 <= 3710
 LB_148T14#116:                  _148T14#64 >= 134
 LB_148T13#117:                  _148T13#65 >= 342
 prec_148T13_148T14#118:         - _148T14#64 + _148T13#65 >= 208
 LB_148T12#119:                  _148T12#66 >= 423
 prec_148T12_148T13#120:         - _148T13#65 + _148T12#66 >= 81
 LB_148T11#121:                  _148T11#67 >= 624
 prec_148T11_148T12#122:         - _148T12#66 + _148T11#67 >= 201
 LB_148T10#123:                  _148T10#68 >= 1504
 prec_148T10_148T11#124:         - _148T11#67 + _148T10#68 >= 880
 LB_148T9#125:                   _148T9#69 >= 1924
 prec_148T9_148T10#126:          - _148T10#68 + _148T9#69 >= 420
 LB_148T8#127:                   _148T8#70 >= 2194
 prec_148T8_148T9#128:           - _148T9#69 + _148T8#70 >= 270
 LB_148T7#129:                   _148T7#71 >= 2524
 prec_148T7_148T8#130:           - _148T8#70 + _148T7#71 >= 330
 LB_148T6#131:                   _148T6#72 >= 2704
 prec_148T6_148T7#132:           - _148T7#71 + _148T6#72 >= 180
 _148step1#133:                  _148T6#72 - 93090 _148step1#73 <= 2570
 _148step2#134:                  _148T6#72 - 92910 _148step2#74 <= 2750
 _148step3#135:                  _148T6#72 - 92730 _148step3#75 <= 2930
 LB_151T23#136:                  _151T23#76 >= 264
 LB_151T24#137:                  _151T24#77 >= 384
 prec_151T24_151T23#138:         - _151T23#76 + _151T24#77 >= 120
 LB_151T25#139:                  _151T25#78 >= 494
 prec_151T25_151T24#140:         - _151T24#77 + _151T25#78 >= 110
 _151step1#141:                  _151T25#78 - 93090 _151step1#79 <= 230
 _151step2#142:                  _151T25#78 - 92910 _151step2#80 <= 410
 _151step3#143:                  _151T25#78 - 92730 _151step3#81 <= 590
 Domain_98T6_vs_148T6#144:       _98T6prec148T6#82 >= 0
 InitiDisj_98T6_vs_162T6#145:    - _98T6#10 + _162T6#38
                                 + 93090 _98T6prec162T6#83 >= 6856
 InitiDisj_162T6_vs_98T6#146:    _98T6#10 - _162T6#38 - 93090 _98T6prec162T6#83
                                 >= -92670
 Domain_148T6_vs_162T6#147:      _148T6prec162T6#84 >= 0
 Domain_98T7_vs_148T7#148:       _98T7prec148T7#85 >= 0
 Domain_98T7_vs_162T7#149:       _98T7prec162T7#86 >= 0
 Domain_98T7_vs_163T7#150:       _98T7prec163T7#87 >= 0
 Domain_148T7_vs_162T7#151:      _148T7prec162T7#88 >= 0
 Domain_148T7_vs_163T7#152:      _148T7prec163T7#89 >= 0
 Domain_162T7_vs_163T7#153:      _162T7prec163T7#90 >= 0
 Domain_98T8_vs_148T8#154:       _98T8prec148T8#91 >= 0
 Domain_98T8_vs_162T8#155:       _98T8prec162T8#92 >= 0
 Domain_98T8_vs_163T8#156:       _98T8prec163T8#93 >= 0
 Domain_148T8_vs_162T8#157:      _148T8prec162T8#94 >= 0
 Domain_148T8_vs_163T8#158:      _148T8prec163T8#95 >= 0
 Domain_162T8_vs_163T8#159:      _162T8prec163T8#96 >= 0
 Domain_98T9_vs_148T9#160:       _98T9prec148T9#97 >= 0
 Domain_98T9_vs_162T9#161:       _98T9prec162T9#98 >= 0
 Domain_98T9_vs_163T9#162:       _98T9prec163T9#99 >= 0
 Domain_148T9_vs_162T9#163:      _148T9prec162T9#100 >= 0
 Domain_148T9_vs_163T9#164:      _148T9prec163T9#101 >= 0
 Domain_162T9_vs_163T9#165:      _162T9prec163T9#102 >= 0
 Domain_98T10_vs_148T10#166:     _98T10prec148T10#103 >= 0
 Domain_98T10_vs_162T10#167:     _98T10prec162T10#104 >= 0
 Domain_98T10_vs_163T10#168:     _98T10prec163T10#105 >= 0
 Domain_148T10_vs_162T10#169:    _148T10prec162T10#106 >= 0
 Domain_148T10_vs_163T10#170:    _148T10prec163T10#107 >= 0
 Domain_162T10_vs_163T10#171:    _162T10prec163T10#108 >= 0
 Domain_98T11_vs_148T11#172:     _98T11prec148T11#109 >= 0
 Domain_98T11_vs_162T11#173:     _98T11prec162T11#110 >= 0
 Domain_98T11_vs_163T11#174:     _98T11prec163T11#111 >= 0
 Domain_148T11_vs_162T11#175:    _148T11prec162T11#112 >= 0
 InitiDisj_148T11_vs_163T11#176: _163T11#46 - _148T11#67
                                 + 93090 _148T11prec163T11#113 >= 700
 InitiDisj_163T11_vs_148T11#177: - _163T11#46 + _148T11#67
                                 - 93090 _148T11prec163T11#113 >= -92770
 Domain_162T11_vs_163T11#178:    _162T11prec163T11#114 >= 0
 Domain_98T12_vs_148T12#179:     _98T12prec148T12#115 >= 0
 Domain_98T12_vs_162T12#180:     _98T12prec162T12#116 >= 0
 Domain_98T12_vs_163T12#181:     _98T12prec163T12#117 >= 0
 Domain_148T12_vs_162T12#182:    _148T12prec162T12#118 >= 0
 Domain_148T12_vs_163T12#183:    _148T12prec163T12#119 >= 0
 Domain_162T12_vs_163T12#184:    _162T12prec163T12#120 >= 0
 Domain_98T13_vs_148T13#185:     _98T13prec148T13#121 >= 0
 Domain_98T13_vs_162T13#186:     _98T13prec162T13#122 >= 0
 Domain_98T13_vs_163T13#187:     _98T13prec163T13#123 >= 0
 Domain_148T13_vs_162T13#188:    _148T13prec162T13#124 >= 0
 Domain_148T13_vs_163T13#189:    _148T13prec163T13#125 >= 0
 Domain_162T13_vs_163T13#190:    _162T13prec163T13#126 >= 0
 Domain_98T14_vs_148T14#191:     _98T14prec148T14#127 >= 0
 Domain_98T14_vs_162T14#192:     _98T14prec162T14#128 >= 0
 Domain_98T14_vs_163T14#193:     _98T14prec163T14#129 >= 0
 Domain_148T14_vs_162T14#194:    _148T14prec162T14#130 >= 0
 Domain_148T14_vs_163T14#195:    _148T14prec163T14#131 >= 0
 Domain_162T14_vs_163T14#196:    _162T14prec163T14#132 >= 0
 Domain_98T15_vs_162T15#197:     _98T15prec162T15#133 >= 0
 Domain_98T15_vs_163T15#198:     _98T15prec163T15#134 >= 0
 Domain_162T15_vs_163T15#199:    _162T15prec163T15#135 >= 0
 Domain_98T16_vs_162T16#200:     _98T16prec162T16#136 >= 0
 InitiDisj_98T16_vs_163T16#201:  - _98T16#0 + _163T16#51
                                 + 93090 _98T16prec163T16#137 >= 977
 InitiDisj_163T16_vs_98T16#202:  _98T16#0 - _163T16#51
                                 - 93090 _98T16prec163T16#137 >= -93000
 Domain_162T16_vs_163T16#203:    _162T16prec163T16#138 >= 0
 Domain_162T17_vs_163T17#204:    _162T17prec163T17#139 >= 0
 Domain_162T18_vs_163T18#205:    _162T18prec163T18#140 >= 0
 InitiDisj_162T19_vs_163T19#206: - _162T19#25 + _163T19#54
                                 + 93090 _162T19prec163T19#141 >= 196
 InitiDisj_163T19_vs_162T19#207: _162T19#25 - _163T19#54
                                 - 93090 _162T19prec163T19#141 >= -93000
 Domain_162T20_vs_163T20#208:    _162T20prec163T20#142 >= 0
 Domain_162T21_vs_163T21#209:    _162T21prec163T21#143 >= 0
 Domain_162T22_vs_163T22#210:    _162T22prec163T22#144 >= 0
 Domain_151T23_vs_162T23#211:    _151T23prec162T23#145 >= 0
 Domain_151T23_vs_163T23#212:    _151T23prec163T23#146 >= 0
 Domain_162T23_vs_163T23#213:    _162T23prec163T23#147 >= 0
 Domain_151T24_vs_162T24#214:    _151T24prec162T24#148 >= 0
 Domain_151T24_vs_163T24#215:    _151T24prec163T24#149 >= 0
 Domain_162T24_vs_163T24#216:    _162T24prec163T24#150 >= 0
 Domain_151T25_vs_162T25#217:    _151T25prec162T25#151 >= 0
 Domain_151T25_vs_163T25#218:    _151T25prec163T25#152 >= 0
 Domain_162T25_vs_163T25#219:    _162T25prec163T25#153 >= 0
Bounds
 0 <= _98T16#0 <= 2147483647
 0 <= _98T15#1 <= 2147483647
 0 <= _98T14#2 <= 2147483647
 0 <= _98T13#3 <= 2147483647
 0 <= _98T12#4 <= 2147483647
 0 <= _98T11#5 <= 2147483647
 0 <= _98T10#6 <= 2147483647
 0 <= _98T9#7 <= 2147483647
 0 <= _98T8#8 <= 2147483647
 0 <= _98T7#9 <= 2147483647
 0 <= _98T6#10 <= 2147483647
 0 <= _98T5#11 <= 2147483647
 0 <= _98T4#12 <= 2147483647
 0 <= _98T3#13 <= 2147483647
 0 <= _98T2#14 <= 2147483647
 0 <= _98T1#15 <= 2147483647
 0 <= _98step1#16 <= 1
 0 <= _98step2#17 <= 1
 0 <= _98step3#18 <= 1
 0 <= _162T25#19 <= 2147483647
 0 <= _162T24#20 <= 2147483647
 0 <= _162T23#21 <= 2147483647
 0 <= _162T22#22 <= 2147483647
 0 <= _162T21#23 <= 2147483647
 0 <= _162T20#24 <= 2147483647
 0 <= _162T19#25 <= 2147483647
 0 <= _162T18#26 <= 2147483647
 0 <= _162T17#27 <= 2147483647
 0 <= _162T16#28 <= 2147483647
 0 <= _162T15#29 <= 2147483647
 0 <= _162T14#30 <= 2147483647
 0 <= _162T13#31 <= 2147483647
 0 <= _162T12#32 <= 2147483647
 0 <= _162T11#33 <= 2147483647
 0 <= _162T10#34 <= 2147483647
 0 <= _162T9#35 <= 2147483647
 0 <= _162T8#36 <= 2147483647
 0 <= _162T7#37 <= 2147483647
 0 <= _162T6#38 <= 2147483647
 0 <= _162step1#39 <= 1
 0 <= _162step2#40 <= 1
 0 <= _162step3#41 <= 1
 0 <= _163T7#42 <= 2147483647
 0 <= _163T8#43 <= 2147483647
 0 <= _163T9#44 <= 2147483647
 0 <= _163T10#45 <= 2147483647
 0 <= _163T11#46 <= 2147483647
 0 <= _163T12#47 <= 2147483647
 0 <= _163T13#48 <= 2147483647
 0 <= _163T14#49 <= 2147483647
 0 <= _163T15#50 <= 2147483647
 0 <= _163T16#51 <= 2147483647
 0 <= _163T17#52 <= 2147483647
 0 <= _163T18#53 <= 2147483647
 0 <= _163T19#54 <= 2147483647
 0 <= _163T20#55 <= 2147483647
 0 <= _163T21#56 <= 2147483647
 0 <= _163T22#57 <= 2147483647
 0 <= _163T23#58 <= 2147483647
 0 <= _163T24#59 <= 2147483647
 0 <= _163T25#60 <= 2147483647
 0 <= _163step1#61 <= 1
 0 <= _163step2#62 <= 1
 0 <= _163step3#63 <= 1
 0 <= _148T14#64 <= 2147483647
 0 <= _148T13#65 <= 2147483647
 0 <= _148T12#66 <= 2147483647
 0 <= _148T11#67 <= 2147483647
 0 <= _148T10#68 <= 2147483647
 0 <= _148T9#69 <= 2147483647
 0 <= _148T8#70 <= 2147483647
 0 <= _148T7#71 <= 2147483647
 0 <= _148T6#72 <= 2147483647
 0 <= _148step1#73 <= 1
 0 <= _148step2#74 <= 1
 0 <= _148step3#75 <= 1
 0 <= _151T23#76 <= 2147483647
 0 <= _151T24#77 <= 2147483647
 0 <= _151T25#78 <= 2147483647
 0 <= _151step1#79 <= 1
 0 <= _151step2#80 <= 1
 0 <= _151step3#81 <= 1
 0 <= _98T6prec148T6#82 <= 1
 0 <= _98T6prec162T6#83 <= 1
 0 <= _148T6prec162T6#84 <= 1
 0 <= _98T7prec148T7#85 <= 1
 0 <= _98T7prec162T7#86 <= 1
 0 <= _98T7prec163T7#87 <= 1
 0 <= _148T7prec162T7#88 <= 1
 0 <= _148T7prec163T7#89 <= 1
 0 <= _162T7prec163T7#90 <= 1
 0 <= _98T8prec148T8#91 <= 1
 0 <= _98T8prec162T8#92 <= 1
 0 <= _98T8prec163T8#93 <= 1
 0 <= _148T8prec162T8#94 <= 1
 0 <= _148T8prec163T8#95 <= 1
 0 <= _162T8prec163T8#96 <= 1
 0 <= _98T9prec148T9#97 <= 1
 0 <= _98T9prec162T9#98 <= 1
 0 <= _98T9prec163T9#99 <= 1
 0 <= _148T9prec162T9#100 <= 1
 0 <= _148T9prec163T9#101 <= 1
 0 <= _162T9prec163T9#102 <= 1
 0 <= _98T10prec148T10#103 <= 1
 0 <= _98T10prec162T10#104 <= 1
 0 <= _98T10prec163T10#105 <= 1
 0 <= _148T10prec162T10#106 <= 1
 0 <= _148T10prec163T10#107 <= 1
 0 <= _162T10prec163T10#108 <= 1
 0 <= _98T11prec148T11#109 <= 1
 0 <= _98T11prec162T11#110 <= 1
 0 <= _98T11prec163T11#111 <= 1
 0 <= _148T11prec162T11#112 <= 1
 0 <= _148T11prec163T11#113 <= 1
 0 <= _162T11prec163T11#114 <= 1
 0 <= _98T12prec148T12#115 <= 1
 0 <= _98T12prec162T12#116 <= 1
 0 <= _98T12prec163T12#117 <= 1
 0 <= _148T12prec162T12#118 <= 1
 0 <= _148T12prec163T12#119 <= 1
 0 <= _162T12prec163T12#120 <= 1
 0 <= _98T13prec148T13#121 <= 1
 0 <= _98T13prec162T13#122 <= 1
 0 <= _98T13prec163T13#123 <= 1
 0 <= _148T13prec162T13#124 <= 1
 0 <= _148T13prec163T13#125 <= 1
 0 <= _162T13prec163T13#126 <= 1
 0 <= _98T14prec148T14#127 <= 1
 0 <= _98T14prec162T14#128 <= 1
 0 <= _98T14prec163T14#129 <= 1
 0 <= _148T14prec162T14#130 <= 1
 0 <= _148T14prec163T14#131 <= 1
 0 <= _162T14prec163T14#132 <= 1
 0 <= _98T15prec162T15#133 <= 1
 0 <= _98T15prec163T15#134 <= 1
 0 <= _162T15prec163T15#135 <= 1
 0 <= _98T16prec162T16#136 <= 1
 0 <= _98T16prec163T16#137 <= 1
 0 <= _162T16prec163T16#138 <= 1
 0 <= _162T17prec163T17#139 <= 1
 0 <= _162T18prec163T18#140 <= 1
 0 <= _162T19prec163T19#141 <= 1
 0 <= _162T20prec163T20#142 <= 1
 0 <= _162T21prec163T21#143 <= 1
 0 <= _162T22prec163T22#144 <= 1
 0 <= _151T23prec162T23#145 <= 1
 0 <= _151T23prec163T23#146 <= 1
 0 <= _162T23prec163T23#147 <= 1
 0 <= _151T24prec162T24#148 <= 1
 0 <= _151T24prec163T24#149 <= 1
 0 <= _162T24prec163T24#150 <= 1
 0 <= _151T25prec162T25#151 <= 1
 0 <= _151T25prec163T25#152 <= 1
 0 <= _162T25prec163T25#153 <= 1
Binaries
 _98step1#16  _98step2#17  _98step3#18  _162step1#39  _162step2#40 
 _162step3#41  _163step1#61  _163step2#62  _163step3#63  _148step1#73 
 _148step2#74  _148step3#75  _151step1#79  _151step2#80  _151step3#81 
 _98T6prec148T6#82  _98T6prec162T6#83  _148T6prec162T6#84  _98T7prec148T7#85 
 _98T7prec162T7#86  _98T7prec163T7#87  _148T7prec162T7#88  _148T7prec163T7#89 
 _162T7prec163T7#90  _98T8prec148T8#91  _98T8prec162T8#92  _98T8prec163T8#93 
 _148T8prec162T8#94  _148T8prec163T8#95  _162T8prec163T8#96  _98T9prec148T9#97 
 _98T9prec162T9#98  _98T9prec163T9#99  _148T9prec162T9#100 
 _148T9prec163T9#101  _162T9prec163T9#102  _98T10prec148T10#103 
 _98T10prec162T10#104  _98T10prec163T10#105  _148T10prec162T10#106 
 _148T10prec163T10#107  _162T10prec163T10#108  _98T11prec148T11#109 
 _98T11prec162T11#110  _98T11prec163T11#111  _148T11prec162T11#112 
 _148T11prec163T11#113  _162T11prec163T11#114  _98T12prec148T12#115 
 _98T12prec162T12#116  _98T12prec163T12#117  _148T12prec162T12#118 
 _148T12prec163T12#119  _162T12prec163T12#120  _98T13prec148T13#121 
 _98T13prec162T13#122  _98T13prec163T13#123  _148T13prec162T13#124 
 _148T13prec163T13#125  _162T13prec163T13#126  _98T14prec148T14#127 
 _98T14prec162T14#128  _98T14prec163T14#129  _148T14prec162T14#130 
 _148T14prec163T14#131  _162T14prec163T14#132  _98T15prec162T15#133 
 _98T15prec163T15#134  _162T15prec163T15#135  _98T16prec162T16#136 
 _98T16prec163T16#137  _162T16prec163T16#138  _162T17prec163T17#139 
 _162T18prec163T18#140  _162T19prec163T19#141  _162T20prec163T20#142 
 _162T21prec163T21#143  _162T22prec163T22#144  _151T23prec162T23#145 
 _151T23prec163T23#146  _162T23prec163T23#147  _151T24prec162T24#148 
 _151T24prec163T24#149  _162T24prec163T24#150  _151T25prec162T25#151 
 _151T25prec163T25#152  _162T25prec163T25#153 
End
