docs/2022-03-21-ModelsBigM/BigMLazyCon_18.log
CPXPARAM_MIP_Tolerances_MIPGap                   0
Lazy constraint(s) or lazy constraint callback is present.
    Disabling dual reductions (CPX_PARAM_REDUCE) in presolve.
    Disabling non-linear reductions (CPX_PARAM_PRELINEAR) in presolve.
         Disabling repeat represolve because of lazy constraint/incumbent callback.
Tried aggregator 1 time.
MIP Presolve eliminated 140 rows and 5 columns.
Reduced MIP has 80 rows, 149 columns, and 168 nonzeros.
Reduced MIP has 82 binaries, 0 generals, 0 SOSs, and 0 indicators.
Presolve time = 0.00 sec. (0.14 ticks)
Probing time = 0.00 sec. (0.05 ticks)
Clique table members: 25.
MIP emphasis: balance optimality and feasibility.
MIP search method: traditional branch-and-cut.
Parallel mode: none, using 1 thread.
Root relaxation solution time = 0.00 sec. (0.09 ticks)

        Nodes                                         Cuts/
   Node  Left     Objective  IInf  Best Integer    Best Bound    ItCnt     Gap         Variable B NodeID Parent  Depth

      0     0        5.0000     4                      5.0000        4         
*     0+    0                            9.0000        5.0000            44.44%
      0     0        cutoff              9.0000                      9    0.00%                        0             0
Elapsed time = 0.00 sec. (0.80 ticks, tree = 0.01 MB, solutions = 1)

Clique cuts applied:  7
Implied bound cuts applied:  10
Mixed integer rounding cuts applied:  4
User cuts applied:  2

Root node processing (before b&c):
  Real time             =    0.00 sec. (0.80 ticks)
Sequential b&c:
  Real time             =    0.00 sec. (0.00 ticks)
                          ------------
Total (root+branch&cut) =    0.00 sec. (0.80 ticks)
